Route #1: 18 13 41 19 40 42 17 4 47
Route #2: 46 5 49 10 39 33 45 15 44 37 12
Route #3: 38 9 30 34 50 16 21 29 2 11
Route #4: 32 1 22 20 35 36 3 28 31 26 8
Route #5: 27 48 23 7 43 24 25 14 6
Cost 521
Time 0.070807
Tempo = 0.08312800002750009